NAME : STSP_225-1over3
COMMENT : Length = 1377
COMMENT : Found by LKH-3 [Keld Helsgaun]
TYPE : TOUR
DIMENSION : 75
TOUR_SECTION
198
206
137
47
124
138
30
52
42
6
134
6
60
34
107
164
79
4
28
114
122
17
122
114
163
98
75
152
15
21
199
147
87
179
87
147
186
51
190
225
108
219
104
219
108
205
108
225
99
73
181
174
110
102
176
168
38
89
223
69
172
69
123
194
166
5
1
204
61
101
71
143
71
188
12
40
208
155
203
155
136
90
184
145
14
191
127
48
200
197
200
212
183
142
78
91
201
53
115
88
128
167
103
196
217
196
74
192
160
24
213
24
55
106
41
77
64
216
182
18
65
29
19
59
16
56
140
133
131
133
140
35
105
22
135
209
224
117
119
117
224
2
218
175
49
39
121
43
82
67
85
130
32
161
109
214
20
171
92
9
206
-1
EOF
